; benchmark generated from python API
(set-info :status unknown)
(declare-fun S_0 () Real)
(declare-fun S_2 () Real)
(declare-fun C () Real)
(declare-fun S_3 () Real)
(declare-fun L_0 () Real)
(declare-fun A_0 () Real)
(declare-fun A_4 () Real)
(declare-fun A_3 () Real)
(declare-fun S_4 () Real)
(declare-fun L_3 () Real)
(declare-fun L0 () Real)
(declare-fun A_1 () Real)
(declare-fun L_1 () Real)
(declare-fun A_2 () Real)
(declare-fun L_2 () Real)
(declare-fun S_1 () Real)
(assert
 (let (($x37 (>= L0 0.0)))
 (let (($x772 (>= C 5.0)))
 (let (($x12167 (<= (+ (* 2.0 C) A_1 L_3 (* (- 1.0) A_3) (* (- 1.0) L_0)) (- 5.0))))
 (let ((?x246 (* (- 1.0) L_3)))
 (let ((?x265 (* (- 1.0) C)))
 (let ((?x495 (* (- 1.0) A_2)))
 (let ((?x11376 (+ ?x495 L_1 ?x265 ?x246 A_3)))
 (let (($x11377 (>= ?x11376 5.0)))
 (let (($x2787 (= L_3 L_1)))
 (let (($x1321 (not (= L_1 L_2))))
 (let (($x19833 (or $x1321 $x2787 $x11377 $x12167 (<= (+ (* 3.0 C) L_3 (* (- 1.0) A_3) S_0) (- 5.0)))))
 (let (($x74 (= L_3 L_2)))
 (let (($x11986 (<= (+ L_1 (* (- 1.0) A_1) (* (- 3.0) C) (* (- 1.0) L_2) A_4) 0.0)))
 (let (($x3637 (not (<= (+ (* (- 1.0) L_2) A_4 (* (- 1.0) S_4)) 0.0))))
 (let (($x12243 (or $x1321 $x2787 $x11377 (<= (+ (* 2.0 C) L_3 (* (- 1.0) A_3) S_1) (- 5.0)))))
 (let (($x11294 (<= (+ C A_1 (* (- 1.0) L_0) (* (- 1.0) S_3)) 0.0)))
 (let (($x10285 (<= (+ (* 2.0 C) (* (- 1.0) S_3) S_0) 0.0)))
 (let (($x2301 (<= (+ (* (- 1.0) L_1) A_2 (* (- 1.0) S_3)) 0.0)))
 (let (($x64 (= L_2 L_1)))
 (let (($x54 (= L_1 L_0)))
 (let (($x10883 (or $x54 (not (<= (+ (* (- 1.0) L_1) A_4 (* (- 1.0) S_4)) 0.0)) (<= (+ (* (- 3.0) C) (* (- 1.0) A_1) A_4) (- 5.0)))))
 (let (($x19006 (or $x54 (<= (+ L_1 (* (- 1.0) A_1) (* (- 2.0) C) S_3) (- 5.0)))))
 (let (($x11380 (not $x11377)))
 (let (($x10936 (<= 0.0 (+ (* (- 1.0) L_1) (* 2.0 C) L_3 (* (- 1.0) A_3) A_1))))
 (let (($x11182 (not $x10936)))
 (let (($x11181 (= (+ (* (- 1.0) L_1) A_1 (* 2.0 C) (* (- 1.0) A_3) L_3) 0.0)))
 (let (($x19537 (or $x2787 (>= S_1 (+ A_1 A_2 (* (- 2.0) L_1) L_3 (* (- 1.0) A_3))) $x11181 $x11182 $x11380)))
 (let (($x10993 (<= (+ (* (- 4.0) C) (* (- 1.0) L_2) (* (- 1.0) S_1) A_4) 0.0)))
 (let (($x11352 (or $x54 (<= S_0 (+ A_1 A_2 (* (- 2.0) L_1) L_3 (* (- 1.0) A_3))))))
 (let ((?x491 (* (- 1.0) A_3)))
 (let ((?x3280 (* (- 2.0) L_1)))
 (let ((?x11171 (+ A_2 ?x3280 C L_3 ?x491 A_1)))
 (let (($x19109 (or $x1321 $x2787 (>= S_2 ?x11171) (not (<= (+ (* (- 1.0) L_1) ?x265 A_2 (* (- 1.0) S_2)) 0.0)))))
 (let (($x10824 (<= (+ (* (- 1.0) L_1) ?x265 A_2 (* (- 1.0) S_2)) 0.0)))
 (let (($x11524 (<= (+ (* (- 1.0) L_1) (* (- 3.0) C) A_2 (* (- 1.0) S_0)) 0.0)))
 (let (($x11430 (or $x2787 (>= S_0 (+ A_1 A_2 ?x3280 L_3 ?x491 ?x265)) $x11380 (not $x11524))))
 (let (($x11513 (<= (+ (* (- 1.0) L_1) (* (- 2.0) C) (* (- 1.0) A_0) L_0 A_2) 0.0)))
 (let (($x10787 (<= (+ (* (- 1.0) A_1) ?x265 A_2) (- 5.0))))
 (let (($x11396 (not $x10787)))
 (let (($x19614 (or $x2787 (<= (+ A_1 A_2 ?x3280 L_3 ?x491) (+ A_0 (* (- 1.0) L_0))) $x11380 (not $x11513))))
 (let (($x10741 (<= (+ C (* (- 1.0) S_2) S_0) 0.0)))
 (let (($x18760 (or $x10285 $x11294 (not (<= (+ L_2 (* 2.0 C) ?x495 S_0) (- 5.0))))))
 (let (($x19502 (or (<= (+ C (* (- 1.0) A_1) L_1 S_0) 0.0) $x11294 (not (<= (+ L_2 C A_1 ?x495 (* (- 1.0) L_0)) (- 5.0))))))
 (let (($x11280 (<= (+ L_2 (* 2.0 C) ?x495 S_0) (- 5.0))))
 (let ((?x573 (* (- 1.0) L_0)))
 (let ((?x11054 (+ L_2 C A_1 ?x495 ?x573)))
 (let (($x11270 (<= ?x11054 (- 5.0))))
 (let (($x1371 (= L_0 L_2)))
 (let (($x4824 (not $x1371)))
 (let (($x4585 (= L_3 L_0)))
 (let (($x18649 (or (<= (+ ?x573 A_2 (* (- 1.0) S_3)) 0.0) $x4585 $x4824 (= (+ ?x573 A_1 (* 2.0 C) ?x491 L_3) 0.0) (not (<= 0.0 (+ ?x573 (* 2.0 C) L_3 ?x491 A_1))))))
 (let (($x11012 (<= (+ (* (- 5.0) C) (* (- 1.0) L_2) A_4 (* (- 1.0) S_0)) 0.0)))
 (let (($x10548 (or $x54 $x64 (= (+ L_1 A_2 (* (- 1.0) L_2) (* (- 1.0) A_1) ?x265) 0.0))))
 (let (($x292 (<= 0.0 (+ ?x495 A_1 C))))
 (let (($x36 (>= L_0 L0)))
 (let (($x111 (>= S_1 S_0)))
 (let (($x114 (>= S_2 S_1)))
 (let (($x117 (>= S_3 S_2)))
 (let (($x122 (>= A_1 A_0)))
 (let (($x123 (>= A_2 A_1)))
 (let (($x124 (>= A_3 A_2)))
 (let (($x125 (>= A_4 A_3)))
 (and (<= (+ A_4 ?x246) S_4) $x125 $x124 $x123 $x122 $x117 $x114 $x111 $x36 (<= (+ (* (- 2.0) C) (* (- 1.0) S_1) S_2) 0.0) (or $x54 (not (<= 0.0 (+ (* (- 1.0) L_1) L_0)))) (or $x292 (not (<= 0.0 (+ ?x495 L_1 S_2)))) $x10548 (or $x54 $x292 $x1321) (<= (+ L_0 S_1 (* (- 1.0) A_1)) 0.0) (or (not $x292) $x64) (or $x54 (<= (+ C (* (- 1.0) A_1) L_1 S_0) (- 5.0))) (or $x54 $x2301 $x10285) (or $x54 (<= (+ L_1 (* (- 1.0) A_1) ?x265 S_2) (- 5.0))) (<= (+ ?x265 L_0 (* (- 1.0) A_0) S_1) 0.0) (<= (+ (* (- 2.0) C) S_1 (* (- 1.0) S_0)) 0.0) (<= (+ (* (- 2.0) C) (* (- 1.0) A_0) L_0 S_2) 0.0) (or $x54 (<= (+ (* (- 1.0) A_1) L_1 S_1) (- 5.0))) (or $x2301 (<= (+ C S_1 (* (- 1.0) S_3)) 0.0)) (or $x54 $x10741) (or $x64 (not (= L_2 L_3)) (<= (+ ?x495 A_3 ?x265) 0.0)) (or $x74 $x3637) (or $x3637 $x11012) (<= (+ L_2 ?x491 S_3) 0.0) (or $x1371 (not (<= 0.0 (+ (* (- 1.0) L_2) L_0)))) (or $x64 (<= (+ L_2 C ?x495 S_1) (- 5.0))) (or (= L_2 L_0) (not (= L_0 L_1)) (<= ?x11054 0.0)) (or $x64 (<= (+ L_2 ?x495 S_2) (- 5.0))) $x18649 (or $x64 $x11270 $x11280) $x19502 (or $x54 $x10936) (or $x64 (<= (+ L_2 ?x265 ?x495 S_3) (- 5.0))) $x18760 (<= (+ (* (- 4.0) C) S_3 (* (- 1.0) S_0)) 0.0) (<= (+ L_1 (* (- 1.0) A_1) (* (- 2.0) C) S_3) 0.0) (<= (+ L_1 (* (- 1.0) A_1) ?x265 S_2) 0.0) (<= (+ (* (- 2.0) C) (* (- 1.0) S_2) S_3) 0.0) (or $x64 $x74 (= (+ C (* (- 1.0) L_2) A_2 ?x491 L_3) 0.0)) (or (<= (+ ?x573 A_1 (* (- 1.0) S_2)) 0.0) $x10741) (or $x1321 $x2787 $x10787 $x11181 $x11182) (or $x2787 $x11377 $x11396) $x19614 (or $x2787 $x11181 $x11182 $x11396 $x11513) $x11430 (or $x2787 $x11181 $x11182 $x11380 $x11524) (or $x2787 $x10824 $x11181 $x11182 $x11380) $x19109 (or $x54 (<= S_1 ?x11171)) (or $x2301 $x2787 $x11181 $x11182 $x11380) (<= (+ L_1 ?x495 S_2) 0.0) $x11352 (<= (+ (* (- 2.0) C) A_4 ?x246 (* (- 1.0) S_3)) 0.0) (<= (+ (* (- 3.0) C) A_4 ?x246 (* (- 1.0) S_2)) 0.0) (<= (+ (* (- 3.0) C) (* (- 1.0) S_1) S_3) 0.0) (or $x3637 $x10993) $x19537 (<= (+ (* (- 5.0) C) A_4 ?x246 (* (- 1.0) S_0)) 0.0) (<= (+ (* (- 4.0) C) (* (- 1.0) A_0) L_0 A_4 ?x246) 0.0) (<= (+ (* (- 4.0) C) (* (- 1.0) S_1) A_4 ?x246) 0.0) (<= S_3 (+ A_2 (* (- 1.0) L_1) C)) (<= (+ A_4 ?x246) (+ A_2 (* (- 1.0) L_1) (* 2.0 C))) (or $x1321 $x2787 (<= 0.0 ?x11376)) (or $x74 (<= (+ L_3 ?x491 S_3) (- 5.0))) $x19006 $x10883 (or $x64 (<= (+ (* (- 2.0) C) L_2 ?x495 A_4 ?x246) (- 5.0))) (or $x74 (<= (+ ?x265 ?x491 A_4) (- 5.0))) (or $x2301 $x10285 $x11294) $x12243 (or $x3637 $x11986) (<= (+ (* (- 3.0) C) (* (- 1.0) A_1) L_0 A_4 ?x246) 0.0) (or $x74 (<= (+ C L_3 ?x491 S_2) (- 5.0))) $x19833 $x772 $x37 (<= (+ (* (- 1.0) A_4) L_3 S_4) 0.0) (<= (+ (* (- 1.0) A_0) L_0 S_0) 0.0) (<= (+ ?x265 ?x491 A_4) 0.0) (<= (+ (* (- 3.0) C) (* (- 1.0) A_0) L_0 S_3) 0.0) (<= (+ (* (- 3.0) C) S_2 (* (- 1.0) S_0)) 0.0)))))))))))))))))))))))))))))))))))))))))))))))))))))))))))))))))
(check-sat)
